(set-logic ALL)
(declare-const dt String)
(declare-const tzname String)
(declare-const conn_tzname String)
(assert (not (= dt "")))
(assert (str.contains dt " "))
(assert (not (< (str.len dt) 0)))
(assert (not (= (+ 0 (str.indexof dt " " 0)) (- 1))))
(assert (not (< (+ 0 (str.indexof dt " " 0)) 0)))
(assert (not (< (+ (+ 0 (str.indexof dt " " 0)) 1) 0)))
(assert (not (< (str.len dt) 0)))
(assert (< (str.len (str.substr dt (+ (+ 0 (str.indexof dt " " 0)) 1) (- (str.len dt) (+ (+ 0 (str.indexof dt " " 0)) 1)))) 0))
(check-sat)
(get-value (dt))
(get-value (tzname))
(get-value (conn_tzname))
